NAME : random_3
COMMENT : 46 random nodes
TYPE : TSP
DIMENSION : 46
EDGE_WEIGHT_TYPE : EUC_2D
NODE_COORD_SECTION
1 -5530 2490
2 -6180 -1803
3 7376 -2376
4 -957 -4533
5 6573 -240
6 2750 6037
7 -5553 -1231
8 7019 3861
9 -907 4138
10 -2383 -2520
11 -2442 -3221
12 -596 -1599
13 -1138 -4218
14 -1820 5689
15 -4655 3208
16 1586 -4352
17 -3337 187
18 -388 2540
19 3212 -3303
20 6778 -5441
21 6308 1792
22 2318 6051
23 -3562 -882
24 214 -448
25 1210 1276
26 610 -3155
27 -4450 -1553
28 2352 5072
29 -825 2379
30 -1321 5414
31 -5883 -4188
32 7399 -4834
33 -5993 -3166
34 5343 1073
35 1434 2450
36 -4599 3190
37 628 5842
38 3231 196
39 1 3115
40 -2272 4687
41 1148 -4388
42 6840 -2421
43 -772 3483
44 -5396 -5280
45 1263 -804
46 -4480 -4683
EOF